Minimize
  obj: x0 + x1 + x2 + x3 + x4 + x5 + x6

Subject To
  c0: x0 + x2 + x3 + x4 + x5 = 193
  c1: x5 + x6 = 35
  c2: x2 + x3 + x4 + x5 + x6 = 202
  c3: x0 + x2 + x4 + x5 = 46
  c4: x2 + x3 + x4 + x5 + x6 = 202
  c5: x1 + x3 + x4 + x5 = 182
  c6: x2 + x3 + x4 + x6 = 186
  c7: x0 + x1 + x2 + x6 = 50

Bounds
  x0 >= 0
  x1 >= 0
  x2 >= 0
  x3 >= 0
  x4 >= 0
  x5 >= 0
  x6 >= 0

Generals
  x0 x1 x2 x3 x4 x5 x6

End
